100
128
15
27
19
8
17
23
15
12
3
30
38
20
25
12
34
14
13
16
57
34
22
23
13
25
38
50
48
34
42
39
63
9
11
6
10
16
28
6
45
49
12
14
7
33
41
25
13
7
51
39
13
37
12
16
28
32
9
3
48
24
3
28
35
47
2
50
16
56
38
29
32
16
17
5
53
16
28
28
18
38
19
46
45
18
20
50
16
21
44
21
52
62
64
31
48
20
60
21
61
46